NAME : random766330
COMMENT: random generated with id 766330
TYPE : TSP
DIMENSION : 10
EDGE_WEIGHT_TYPE : EUC_2D
NODE_COORD_SECTION
1 15.936520 13.315143
2 9.008805 15.738724
3 10.750434 2.447146
4 0.466793 9.634261
5 10.054125 15.490965
6 15.110622 14.956131
7 13.098949 1.365263
8 5.079792 16.690147
9 8.478545 18.876903
10 3.123875 0.400056
EOF
